NAME : cluster_netgen
COMMENT : cl=6
TYPE : TSP
DIMENSION : 50
EDGE_WEIGHT_TYPE : EUC_2D
NODE_COORD_SECTION
1 483585 563631
2 503156 601721
3 495244 499402
4 410619 670205
5 536841 678916
6 474644 532765
7 449005 566099
8 505687 658366
9 794155 201298
10 836478 200481
11 907626 136974
12 807407 151486
13 724739 152023
14 808240 196868
15 757378 246707
16 773544 297496
17 584039 216917
18 763233 172221
19 312523 905519
20 191081 975524
21 154652 958959
22 198639 992475
23 155806 908772
24 123088 866683
25 206170 820420
26 76553 981209
27 763824 665287
28 804193 702225
29 973566 647093
30 819077 721739
31 899600 787031
32 894430 676866
33 844988 727812
34 947269 747948
35 89402 136054
36 69097 21662
37 93309 67928
38 113359 58692
39 30246 9760
40 185144 73176
41 138283 166235
42 77030 73476
43 631675 439887
44 701737 416214
45 806485 420705
46 670586 431456
47 673002 478488
48 712433 377920
49 625884 364603
50 623315 418542

EOF
